c seed= 1677871504
p cnf 8 32
-1 5 4 0
-5 2 -6 0
-5 6 2 0
5 -2 -6 0
5 -8 -7 0
-1 -5 8 0
-2 8 -7 0
8 4 2 0
7 -4 -1 0
-2 -1 7 0
-2 8 -1 0
-6 -2 3 0
4 5 7 0
-2 -8 3 0
6 5 -7 0
3 8 4 0
-4 -2 -3 0
-3 4 6 0
2 -1 -5 0
1 5 -7 0
-6 7 -2 0
8 7 4 0
1 -3 8 0
2 3 -1 0
6 7 -4 0
6 1 -5 0
3 -7 6 0
-4 -6 3 0
-5 2 3 0
8 5 -4 0
1 7 -8 0
4 7 1 0
